N: 2000
R: 1000
Capacities: 493654
------
Total value: 493654
Total weight: 493654
Packed Items: [0, 1, 2, 3, 4, 5, 6, 7, 8, 9, 10, 11, 12, 13, 14, 15, 16, 17, 18, 19, 20, 21, 22, 23, 24, 25, 26, 27, 28, 29, 30, 31, 32, 33, 34, 35, 36, 37, 38, 39, 40, 41, 42, 43, 44, 45, 46, 47, 48, 49, 50, 51, 52, 53, 54, 55, 56, 57, 58, 59, 60, 61, 62, 63, 64, 65, 66, 67, 68, 69, 70, 71, 72, 73, 74, 75, 76, 77, 78, 79, 80, 81, 82, 83, 84, 85, 86, 87, 88, 89, 90, 91, 92, 93, 94, 95, 96, 97, 98, 99, 100, 101, 102, 103, 104, 105, 106, 107, 108, 109, 110, 111, 112, 113, 114, 115, 116, 117, 118, 119, 120, 121, 122, 123, 124, 125, 126, 127, 128, 129, 130, 131, 132, 133, 134, 135, 136, 137, 138, 139, 140, 141, 142, 143, 144, 145, 146, 147, 148, 149, 150, 151, 152, 153, 154, 155, 156, 157, 158, 159, 160, 161, 162, 163, 164, 165, 166, 167, 168, 169, 170, 171, 172, 173, 174, 175, 176, 177, 178, 179, 180, 181, 182, 183, 184, 185, 186, 187, 188, 189, 190, 191, 192, 193, 194, 195, 196, 197, 198, 199, 200, 201, 202, 203, 204, 205, 206, 207, 208, 209, 210, 211, 212, 213, 214, 215, 216, 217, 218, 219, 220, 221, 222, 223, 224, 225, 226, 227, 228, 229, 230, 231, 232, 233, 234, 235, 236, 237, 238, 239, 240, 241, 242, 243, 244, 245, 246, 247, 248, 249, 250, 251, 252, 253, 254, 255, 256, 257, 258, 259, 260, 261, 262, 263, 264, 265, 266, 267, 268, 269, 270, 271, 272, 273, 274, 275, 276, 277, 278, 279, 280, 281, 282, 283, 284, 285, 286, 287, 288, 289, 290, 291, 292, 293, 294, 295, 296, 297, 298, 299, 300, 301, 302, 303, 304, 305, 306, 307, 308, 309, 310, 311, 312, 313, 314, 315, 316, 317, 318, 319, 320, 321, 322, 323, 324, 325, 326, 327, 328, 329, 330, 331, 332, 333, 334, 335, 336, 337, 338, 339, 340, 341, 342, 343, 344, 345, 346, 347, 348, 349, 350, 351, 352, 353, 354, 355, 356, 357, 358, 359, 360, 361, 362, 363, 364, 365, 366, 367, 368, 369, 370, 371, 372, 373, 374, 375, 376, 377, 378, 379, 380, 381, 382, 383, 384, 385, 386, 387, 388, 389, 390, 391, 392, 393, 394, 395, 396, 397, 398, 399, 400, 401, 402, 403, 404, 405, 406, 407, 408, 409, 410, 411, 412, 413, 414, 415, 416, 417, 418, 419, 420, 421, 422, 423, 424, 425, 426, 427, 428, 429, 430, 431, 432, 433, 434, 435, 436, 437, 438, 439, 440, 441, 442, 443, 444, 445, 446, 447, 448, 449, 450, 452, 453, 454, 455, 456, 457, 458, 459, 460, 461, 462, 463, 464, 465, 466, 467, 468, 469, 470, 471, 472, 473, 474, 475, 476, 477, 478, 479, 480, 481, 482, 483, 484, 485, 486, 487, 488, 489, 490, 491, 492, 493, 494, 495, 496, 497, 498, 499, 500, 501, 502, 503, 504, 505, 506, 507, 508, 509, 510, 511, 512, 513, 514, 515, 516, 517, 518, 519, 520, 521, 522, 523, 524, 525, 526, 527, 528, 529, 530, 531, 532, 533, 534, 535, 536, 537, 538, 539, 540, 541, 542, 543, 544, 545, 546, 547, 548, 549, 550, 551, 552, 553, 554, 555, 556, 557, 558, 559, 560, 561, 562, 563, 564, 565, 566, 567, 568, 569, 570, 571, 572, 573, 574, 575, 576, 577, 578, 579, 580, 581, 582, 583, 584, 585, 586, 587, 588, 589, 590, 591, 592, 593, 594, 595, 596, 597, 598, 599, 600, 601, 602, 603, 604, 605, 606, 607, 608, 609, 610, 611, 612, 613, 614, 615, 616, 617, 618, 619, 620, 621, 622, 623, 624, 625, 626, 627, 628, 629, 630, 631, 632, 633, 634, 635, 636, 637, 638, 639, 640, 641, 642, 643, 644, 645, 646, 647, 648, 649, 650, 651, 652, 653, 654, 655, 656, 657, 658, 659, 660, 661, 662, 663, 664, 665, 666, 667, 668, 669, 670, 671, 672, 673, 674, 675, 676, 677, 678, 679, 680, 681, 682, 683, 684, 685, 686, 687, 688, 689, 690, 691, 692, 693, 694, 695, 696, 697, 698, 699, 700, 701, 702, 703, 704, 705, 706, 707, 708, 709, 710, 711, 712, 713, 714, 715, 716, 717, 718, 719, 720, 721, 722, 723, 724, 725, 726, 727, 728, 729, 730, 731, 732, 733, 734, 735, 736, 737, 738, 739, 740, 741, 742, 743, 744, 745, 746, 747, 748, 749, 750, 751, 752, 753, 754, 755, 756, 757, 758, 759, 760, 761, 762, 763, 764, 765, 766, 767, 768, 769, 770, 771, 772, 773, 774, 775, 776, 777, 778, 779, 780, 781, 782, 783, 784, 785, 786, 787, 788, 789, 790, 791, 792, 793, 794, 795, 796, 797, 798, 799, 800, 801, 802, 803, 804, 805, 806, 807, 808, 809, 810, 811, 812, 813, 814, 815, 816, 817, 818, 819, 820, 821, 822, 823, 824, 825, 826, 827, 828, 829, 830, 831, 832, 833, 834, 835, 836, 837, 838, 839, 840, 841, 842, 843, 844, 845, 846, 847, 848, 849, 850, 851, 852, 853, 854, 855, 856, 857, 858, 859, 860, 861, 862, 863, 864, 865, 866, 867, 868, 869, 870, 871, 872, 873, 874, 875, 876, 877, 878, 879, 880, 881, 882, 883, 884, 885, 886, 887, 888, 889, 890, 891, 892, 893, 894, 895, 896, 897, 898, 899, 900, 901, 902, 903, 904, 905, 906, 907, 908, 909, 910, 911, 912, 913, 914, 915, 916, 917, 918, 919, 920, 921, 922, 923, 924, 925, 926, 927, 928, 929, 930, 931, 932, 933, 934, 935, 936, 937, 938, 939, 940, 941, 942, 943, 944, 945, 946, 947, 948, 949, 950, 951, 952, 953, 954, 955, 956, 957, 958, 959, 960, 961, 962, 963, 964, 965, 966, 967, 968, 969, 970, 971, 972, 973, 974, 975, 976, 977, 978, 979, 980, 981, 982, 983, 984, 985, 986, 987, 988, 989, 990, 991, 992, 993, ]
Packed Weights: [238, 545, 370, 604, 626, 66, 14, 838, 260, 235, 996, 471, 837, 477, 640, 151, 635, 869, 524, 742, 672, 65, 759, 592, 302, 32, 866, 473, 719, 879, 715, 922, 395, 801, 445, 936, 879, 98, 136, 217, 966, 437, 627, 302, 508, 386, 351, 586, 585, 905, 682, 929, 857, 991, 672, 164, 861, 965, 905, 570, 714, 212, 832, 574, 285, 64, 854, 990, 89, 801, 411, 151, 294, 769, 873, 45, 615, 45, 719, 331, 881, 981, 506, 999, 310, 77, 600, 32, 198, 408, 611, 157, 43, 868, 314, 959, 897, 378, 461, 521, 644, 596, 560, 621, 941, 508, 432, 721, 238, 302, 978, 522, 549, 12, 416, 580, 21, 616, 633, 61, 628, 467, 680, 353, 707, 739, 23, 61, 677, 964, 252, 457, 593, 321, 364, 313, 370, 596, 301, 378, 773, 27, 570, 736, 311, 223, 804, 239, 188, 436, 699, 102, 322, 334, 834, 439, 856, 170, 337, 651, 885, 452, 226, 121, 530, 191, 807, 839, 184, 279, 808, 642, 807, 346, 130, 292, 794, 272, 347, 417, 420, 410, 921, 156, 5, 944, 880, 987, 435, 951, 928, 223, 746, 837, 663, 520, 290, 342, 228, 69, 589, 288, 811, 46, 904, 694, 924, 897, 900, 577, 14, 746, 172, 300, 663, 525, 414, 940, 613, 342, 253, 862, 478, 783, 352, 198, 535, 817, 172, 792, 922, 807, 824, 8, 629, 863, 50, 272, 269, 528, 423, 473, 777, 2, 55, 127, 125, 69, 975, 855, 87, 503, 316, 315, 352, 647, 587, 361, 192, 329, 124, 556, 717, 381, 80, 179, 374, 605, 783, 381, 802, 623, 432, 373, 497, 703, 421, 695, 461, 246, 536, 696, 72, 425, 426, 880, 937, 375, 898, 791, 263, 465, 124, 814, 663, 888, 793, 668, 734, 564, 104, 588, 5, 144, 775, 45, 92, 100, 881, 180, 24, 842, 122, 844, 674, 837, 953, 580, 799, 37, 768, 512, 716, 107, 749, 935, 62, 325, 564, 829, 243, 180, 250, 616, 754, 394, 368, 397, 351, 419, 84, 501, 974, 413, 748, 161, 691, 757, 674, 518, 484, 643, 898, 150, 96, 749, 917, 518, 444, 719, 187, 268, 200, 586, 315, 233, 692, 954, 296, 706, 414, 854, 585, 268, 218, 24, 480, 383, 173, 361, 323, 775, 144, 992, 480, 600, 469, 835, 822, 558, 482, 721, 857, 401, 734, 961, 468, 230, 235, 718, 676, 959, 854, 243, 190, 259, 188, 705, 859, 900, 256, 866, 314, 424, 729, 86, 93, 834, 292, 357, 581, 676, 7, 335, 437, 486, 211, 586, 956, 391, 545, 120, 275, 666, 113, 888, 909, 97, 942, 375, 773, 758, 296, 676, 655, 807, 266, 755, 962, 673, 537, 494, 353, 719, 679, 567, 182, 646, 631, 180, 890, 656, 124, 932, 142, 332, 721, 598, 555, 648, 458, 313, 177, 69, 716, 755, 544, 740, 360, 266, 384, 873, 43, 505, 248, 769, 355, 333, 404, 542, 772, 353, 847, 113, 271, 100, 113, 779, 728, 185, 190, 417, 744, 816, 749, 592, 147, 399, 194, 528, 569, 203, 251, 782, 31, 804, 892, 950, 384, 553, 584, 634, 977, 687, 300, 861, 485, 602, 727, 3, 771, 662, 492, 524, 461, 194, 530, 38, 501, 646, 445, 567, 960, 893, 136, 793, 624, 51, 360, 234, 78, 539, 930, 324, 871, 695, 135, 859, 602, 927, 716, 740, 344, 807, 932, 862, 438, 757, 486, 110, 43, 78, 201, 161, 498, 700, 538, 423, 650, 305, 465, 758, 402, 181, 900, 720, 367, 371, 530, 597, 224, 3, 209, 784, 144, 460, 196, 210, 171, 404, 169, 28, 111, 169, 491, 60, 23, 449, 408, 704, 52, 404, 397, 27, 966, 219, 95, 475, 165, 623, 347, 124, 52, 728, 276, 788, 466, 933, 301, 250, 266, 815, 630, 345, 94, 683, 970, 593, 4, 31, 91, 171, 37, 54, 655, 901, 201, 974, 477, 804, 918, 941, 35, 305, 607, 947, 88, 294, 850, 115, 390, 335, 681, 929, 175, 740, 734, 836, 554, 924, 363, 415, 230, 780, 481, 270, 170, 721, 606, 711, 387, 488, 154, 711, 23, 467, 759, 678, 98, 238, 844, 643, 879, 873, 450, 897, 733, 334, 371, 73, 400, 956, 105, 569, 111, 81, 650, 241, 49, 153, 645, 586, 12, 230, 968, 221, 563, 420, 782, 605, 789, 536, 189, 178, 80, 826, 113, 24, 967, 200, 894, 86, 466, 223, 830, 616, 642, 762, 872, 347, 604, 446, 111, 836, 595, 815, 206, 540, 465, 729, 78, 347, 485, 72, 553, 736, 423, 649, 606, 215, 351, 996, 336, 431, 85, 218, 166, 931, 727, 875, 987, 613, 932, 536, 419, 949, 904, 950, 485, 774, 407, 998, 921, 293, 935, 185, 96, 723, 295, 520, 640, 41, 746, 276, 433, 345, 743, 747, 288, 104, 300, 412, 78, 154, 763, 701, 977, 980, 877, 373, 162, 312, 464, 526, 543, 360, 853, 286, 464, 887, 808, 298, 243, 807, 11, 132, 531, 536, 166, 51, 204, 770, 466, 980, 786, 980, 36, 186, 14, 433, 339, 52, 547, 94, 312, 248, 803, 419, 261, 45, 430, 628, 676, 913, 809, 248, 136, 759, 790, 509, 831, 552, 280, 169, 18, 644, 897, 907, 468, 666, 929, 815, 603, 415, 519, 171, 183, 684, 993, 548, 409, 352, 455, 803, 453, 960, 156, 315, 522, 412, 852, 828, 932, 613, 31, 575, 550, 488, 280, 710, 912, 103, 669, 372, 515, 896, 961, 644, 196, 921, 182, 384, 829, 317, 271, 950, 944, 318, 393, 282, 132, 251, 981, 80, 230, 200, 80, 527, 744, 839, 632, 818, 6, 283, 962, 70, 268, 483, 268, 547, 48, 236, 958, 145, 906, 178, 993, 675, 647, 143, 55, 760, 177, 190, 823, 875, 49, 961, 535, 383, 108, 390, 988, 281, 132, 146, 127, 353, 915, 77, 192, 940, 997, 980, 246, 355, 951, 486, 704, 314, 22, 346, 749, 782, 569, 465, 539, 443, 535, 833, 201, 595, 933, ]
Time Consuming: 0.024013996124267578